\* Problem: Unknown *\

Minimize
 obj: - 201 x_1 - 400 x_2 + 600 x_3 - 300 x_4 + 700 x_5 + 900 x_6
 + 100 x_7

Subject To
 r_1: + x_4 + x_2 - ~r_1 = 0
 r_2: + x_3 + x_2 + x_1 >= 0
 r_3: + x_7 >= 0
 r_4: + x_5 + x_4 = 45515.52
 r_5: + x_6 = 98547.84
 r_6: + x_7 = 1550408.72727273
 r_7: + x_1 - ~r_7 = 0
 r_8: + x_6 + x_5 + x_3 - ~r_8 = 0
 r_9: + x_6 + x_5 + x_3 >= 0
 r_10: + x_5 + x_4 + x_3 + x_2 >= 0
 r_11: + x_5 + x_4 + x_3 + x_2 - ~r_11 = 0
 r_12: - x_3 - x_2 - x_1 + x_7 - ~r_12 = -5480000

Bounds
 0 <= ~r_1 <= 40747.1904
 0 <= ~r_7 <= 15095.6479685315
 0 <= ~r_8 <= 1320000
 0 <= ~r_11 <= 1320000
 0 <= ~r_12 <= 5480000

End
